! DFT B3LYP TZVP def2/J RIJCOSX TIGHTSCF OPT
%MAXCORE 4000

* xyz 0 1
  C    1.000000    1.000000    0.000000
  C   -0.500000    1.000000    0.000000
  C   -1.219000    1.000000    1.200000
  C   -2.617000    0.998000    1.187000
  C   -3.315000    0.997000   -0.025000
  C   -4.815000    0.994000   -0.051000
  C   -2.593000    0.997000   -1.223000
  C   -1.198000    0.998000   -1.212000
  H    1.401000    1.091000    1.015000
  H    1.379000    1.843000   -0.586000
  H    1.374000    0.064000   -0.428000
  H   -0.698000    1.000000    2.154000
  H   -3.153000    0.997000    2.133000
  H   -5.233000    0.928000    0.958000
  H   -5.179000    0.131000   -0.618000
  H   -5.186000    1.914000   -0.514000
  H   -3.116000    0.995000   -2.177000
  H   -0.656000    0.997000   -2.155000
*