! DFT B3LYP TZVP def2/J RIJCOSX TIGHTSCF OPT
%MAXCORE 4000

* xyz 0 1
  C   1.000000    1.000000    0.000000
  C  -0.521000    1.000000    0.000000
  C  -1.087000    1.000000    1.397000
  C  -1.377000    2.208000    2.045000
  C  -1.899000    2.208000    3.339000
  C  -2.135000    1.002000    3.996000
  C  -1.849000   -0.204000    3.358000
  C  -1.328000   -0.207000    2.066000
  H   1.377000    1.001000   -1.028000
  H   1.397000    0.112000    0.504000
  H   1.398000    1.885000    0.508000
  H  -0.891000    0.124000   -0.547000
  H  -0.889000    1.877000   -0.547000
  H  -1.198000    3.156000    1.543000
  H  -2.122000    3.150000    3.833000
  H  -2.541000    1.003000    5.004000
  H  -2.034000   -1.145000    3.868000
  H  -1.111000   -1.156000    1.581000
*