! DFT B3LYP TZVP def2/J RIJCOSX TIGHTSCF OPT
%MAXCORE 4000

* xyz 0 1
  C    1.000000    1.000000    0.000000
  C   -0.520000    1.000000    0.000000
  C   -1.079000    1.000000    1.423000
  C   -2.608000    0.998000    1.420000
  C   -3.167000    1.000000    2.842000
  C   -4.687000    0.996000    2.842000
  H    1.378000    1.001000   -1.027000
  H    1.391000    0.111000    0.505000
  H    1.391000    1.888000    0.507000
  H   -0.879000    0.117000   -0.541000
  H   -0.879000    1.883000   -0.541000
  H   -0.713000    1.883000    1.960000
  H   -0.712000    0.117000    1.961000
  H   -2.973000    0.114000    0.883000
  H   -2.975000    1.880000    0.880000
  H   -2.809000    1.885000    3.381000
  H   -2.805000    0.119000    3.385000
  H   -5.080000    1.882000    2.333000
  H   -5.065000    0.999000    3.870000
  H   -5.076000    0.107000    2.337000
*