! DFT B3LYP TZVP def2/J RIJCOSX TIGHTSCF OPT
%MAXCORE 4000

* xyz 0 1
  C    1.000000    1.000000    0.000000
  C   -0.500000    1.000000    0.000000
  C   -1.219000    1.000000    1.200000
  C   -2.614000    1.002000    1.183000
  C   -3.301000    1.003000   -0.031000
  C   -2.596000    1.003000   -1.239000
  C   -3.321000    1.006000   -2.553000
  C   -1.198000    1.002000   -1.215000
  H    1.401000    0.880000    1.012000
  H    1.376000    1.945000   -0.404000
  H    1.377000    0.170000   -0.607000
  H   -0.698000    0.998000    2.154000
  H   -3.166000    1.003000    2.119000
  H   -4.388000    1.003000   -0.025000
  H   -4.401000    0.888000   -2.415000
  H   -2.973000    0.177000   -3.177000
  H   -3.146000    1.952000   -3.076000
  H   -0.644000    1.000000   -2.152000
*